
#######################################################################
#
#                 Cambridge Crystallographic Data Centre
#                                CCDC
#
#######################################################################
#
# If this CIF has been generated from an entry in the Cambridge
# Structural Database, then it will include bibliographic, chemical,
# crystal, experimental, refinement or atomic coordinate data resulting
# from the CCDC's data processing and validation procedures.
#
#######################################################################

data_CSD_CIF_FAHYOD
_audit_creation_date 2005-04-13
_audit_creation_method CSD-ConQuest-V1
_database_code_CSD FAHYOD
_database_code_depnum_ccdc_archive 'CCDC 248606'
_chemical_formula_sum 'C4 H14 F2 N2 O12 S2 U2'
_chemical_formula_moiety
;
(C4 H14 N2 2+)n,n(F2 O12 S2 U2 2-)
;
_journal_coden_Cambridge 222
_journal_year 2004
_journal_page_first 3810
_journal_name_full 'Dalton Trans. '
loop_
_publ_author_name
"M.B.Doran"
"B.E.Cockbain"
"A.J.Norquist"
"D.O'Hare"
_chemical_name_systematic
;
catena-(Butane-1,4-diammonium 
bis(\m~3~-sulfato-O,O',O'')-bis(\m~2~-fluoro)-tetraoxo-di-uranium)
;
_cell_volume    804.887
_exptl_crystal_colour 'yellow'
_exptl_crystal_density_diffrn 3.55
_exptl_crystal_description 'plate'
_diffrn_ambient_temperature 150
#These two values have been output from a single CSD field.
_refine_ls_R_factor_gt 0.0328
_refine_ls_wR_factor_gt 0.0328
_symmetry_cell_setting monoclinic
_symmetry_space_group_name_H-M 'P 21/c'
_symmetry_Int_Tables_number 14
loop_
_symmetry_equiv_pos_site_id
_symmetry_equiv_pos_as_xyz
1 x,y,z
2 -x,1/2+y,1/2-z
3 -x,-y,-z
4 x,-1/2-y,-1/2+z
_cell_length_a 6.7754(5)
_cell_length_b 8.4094(8)
_cell_length_c 14.1492(14)
_cell_angle_alpha 90
_cell_angle_beta 93.245(3)
_cell_angle_gamma 90
_cell_formula_units_Z 2
loop_
_atom_type_symbol
_atom_type_radius_bond
C 0.68
H 0.23
F 0.64
N 0.68
O 0.68
S 1.02
U 1.50
loop_
_atom_site_label
_atom_site_type_symbol
_atom_site_fract_x
_atom_site_fract_y
_atom_site_fract_z
H1 H -0.23620 0.09570 0.42680
H2 H -0.18970 0.10530 0.54120
H3 H -0.53210 0.12620 0.56700
H4 H -0.58650 0.13870 0.45340
H5 H -0.31060 0.37200 0.54130
H6 H -0.35700 0.36240 0.42690
H7 H -0.12890 0.35710 0.47070
C1 C -0.2803(19) 0.1436(17) 0.4873(9)
C2 C -0.4933(19) 0.0894(15) 0.5029(9)
O1 O 0.0920(12) 0.261(1) 0.3677(5)
O2 O 0.0913(12) 0.145(1) 0.1249(6)
O3 O 0.3357(13) 0.3955(11) 0.2218(6)
O4 O 0.5897(13) 0.5872(11) 0.2256(6)
O5 O 0.2600(12) 0.670(1) 0.2553(7)
O6 O 0.4507(14) 0.5133(12) 0.3721(7)
U1 U 0.09345(7) 0.20278(5) 0.24636(3)
S1 S 0.4096(5) 0.5410(4) 0.2711(2)
F1 F 0.052(1) -0.0552(8) 0.2928(5)
N1 N -0.2680(16) 0.3228(14) 0.4810(8)
H1B H -0.76380 -0.09570 0.57320
H2B H -0.81030 -0.10530 0.45880
H3B H -0.46790 -0.12620 0.43300
H4B H -0.41350 -0.13870 0.54660
H5B H -0.68940 -0.37200 0.45870
H6B H -0.64300 -0.36240 0.57310
H7B H -0.87110 -0.35710 0.52930
C1B C -0.7197(19) -0.1436(17) 0.5127(9)
C2B C -0.5067(19) -0.0894(15) 0.4971(9)
O1A O 0.9080(12) -0.239(1) 0.1323(5)
O2A O 0.9087(12) -0.355(1) 0.3751(6)
O3A O 0.6643(13) -0.1045(11) 0.2782(6)
O4A O 0.4103(13) 0.0872(11) 0.2744(6)
O4* O 0.5897(13) -0.4128(11) 0.2256(6)
O5A O 0.7400(12) 0.170(1) 0.2447(7)
O5A* O -0.2600(12) 0.170(1) 0.2447(7)
O5* O 1.2600(12) -0.330(1) 0.2553(7)
O6A O 0.5493(14) 0.0133(12) 0.1279(7)
U1A U 0.90655(7) -0.29722(5) 0.25364(3)
U1A* U 0.90655(7) 0.70278(5) 0.25364(3)
U1A** U -0.09345(7) 0.70278(5) 0.25364(3)
U1A*** U -0.09345(7) -0.29722(5) 0.25364(3)
U1* U 1.09345(7) 0.20278(5) 0.24636(3)
S1A S 0.5904(5) 0.0410(4) 0.2289(2)
F1A F -0.052(1) 0.4448(8) 0.2072(5)
F1* F 1.052(1) -0.0552(8) 0.2928(5)
F1A* F 0.948(1) -0.5552(8) 0.2072(5)
N1B N -0.7320(16) -0.3228(14) 0.5190(8)
#END
